(set-logic HORN)
(declare-fun state ((Array Int Int) Int Int Int (Array Int Int) Int Int Bool Bool Int Int) Bool)
(assert (forall ((|a_3| (Array Int Int)) (|i_2| Int) (|N_3| Int) (|.y.6| Int) (|.y.7| (Array Int Int)) (|.y.8| Int) (|.y.9| Int) (|.loc.10| Bool) (|.loc.11| Bool) (|i1_2| Int) (|j1_0| Int) (|.x.9| (Array Int Int)) (|.loc.15| Bool) (|.loc.16| Bool) (|.x.11| Int) (|.x.10| Int) (|b| (Array Int Int)) (|.y.12| Int) (|.y.13| Int) (|.y.14| Int) (|.xpv.1| Int) (|.xpv.2| Int)) (=> (and (and .loc.10 (not .loc.11)) (= i_2 0)) (state |a_3| |i_2| |N_3| |.y.6| |.y.7| |.y.8| |.y.9| |.loc.10| |.loc.11| |i1_2| |j1_0|))))
(assert (forall ((|a_3| (Array Int Int)) (|i_2| Int) (|N_3| Int) (|.y.6| Int) (|.y.7| (Array Int Int)) (|.y.8| Int) (|.y.9| Int) (|.loc.10| Bool) (|.loc.11| Bool) (|i1_2| Int) (|j1_0| Int) (|.x.9| (Array Int Int)) (|.loc.15| Bool) (|.loc.16| Bool) (|.x.11| Int) (|.x.10| Int) (|b| (Array Int Int)) (|.y.12| Int) (|.y.13| Int) (|.y.14| Int) (|.xpv.1| Int) (|.xpv.2| Int)) (=> (and (state |a_3| |i_2| |N_3| |.y.6| |.y.7| |.y.8| |.y.9| |.loc.10| |.loc.11| |i1_2| |j1_0|) (let ((.def_21 (not .loc.11))) (let ((.def_29 (not .loc.15))) (let ((.def_36 (<= N_3 i_2))) (let ((.def_53 (not .loc.10))) (let ((.def_70 (not .loc.16))) (let ((.def_74 (<= .y.6 N_3))) (let ((.def_88 (= i_2 .y.12))) (let ((.def_94 (select a_3 i_2))) (let ((.def_95 (select a_3 N_3))) (or (and (= a_3 .x.9) (or (or (and (and .def_29 .loc.16) (or (and .def_21 (and .loc.10 (and (= N_3 .x.11) (and (= .x.10 0) .def_36)))) (and (not (<= .y.9 .y.8)) (and (= (store .y.7 .y.8 (select a_3 (+ .y.9 (* (- 1) .x.10)))) b) (and (= (+ .y.8 (* (- 1) .x.10)) (- 1)) (and (and .loc.11 .def_53) (= .y.9 .x.11))))))) (and (and (= (+ i_2 (* (- 1) .y.12)) (- 1)) (and (= .y.6 .y.13) (and (and .def_53 (and .def_21 .loc.15)) .def_70))) .def_74)) (and (= (+ i_2 (* (- 1) .y.13)) (- 1)) (and (and (= N_3 .y.14) (and .def_70 (and .def_29 (and .def_21 (and .loc.10 (not .def_36)))))) .def_88)))) (and (not .def_74) (and (= .x.9 (ite (not (<= .def_94 .def_95)) (store (store a_3 i_2 .def_95) N_3 .def_94) a_3)) (and (= (+ N_3 (* (- 1) .y.13)) (- 1)) (and (= .y.6 .y.14) (and .def_88 (and .def_70 (and .def_53 (and .def_21 .def_29))))))))))))))))))) (state |.x.9| |.y.12| |.y.13| |.y.14| |b| |.x.10| |.x.11| |.loc.15| |.loc.16| |.xpv.1| |.xpv.2|))))
(assert (forall ((|a_3| (Array Int Int)) (|i_2| Int) (|N_3| Int) (|.y.6| Int) (|.y.7| (Array Int Int)) (|.y.8| Int) (|.y.9| Int) (|.loc.10| Bool) (|.loc.11| Bool) (|i1_2| Int) (|j1_0| Int) (|.x.9| (Array Int Int)) (|.loc.15| Bool) (|.loc.16| Bool) (|.x.11| Int) (|.x.10| Int) (|b| (Array Int Int)) (|.y.12| Int) (|.y.13| Int) (|.y.14| Int) (|.xpv.1| Int) (|.xpv.2| Int)) (=> (state |a_3| |i_2| |N_3| |.y.6| |.y.7| |.y.8| |.y.9| |.loc.10| |.loc.11| |i1_2| |j1_0|) (not (and (and .loc.11 (not .loc.10)) (and (<= .y.9 .y.8) (and (<= 0 i1_2) (and (and (not (<= j1_0 i1_2)) (and (not (<= (select .y.7 j1_0) (select .y.7 i1_2))) (not (<= .y.9 j1_0)))) (not (<= .y.9 i1_2))))))))))
(check-sat)
